Maximize
  18 x0_0_ + 18 x0_1_ + 18 x0_2_ + 18 x0_3_ + 18 x0_4_ + 4 x0_5_ + 4 x0_6_
   + 18 x0_7_ + 18 x0_8_ + 18 x0_9_ + 216 x1_5_ + 216 x1_6_ + 85 x2_5_
   + 85 x2_6_ + 144 x3_5_ + 144 x3_6_ + 27 x4_0_ + 27 x4_1_ + 27 x4_2_
   + 27 x4_3_ + 27 x4_4_ + 6 x4_5_ + 6 x4_6_ + 27 x4_7_ + 27 x4_8_
   + 27 x4_9_ + 27 x5_0_ + 27 x5_1_ + 27 x5_2_ + 27 x5_3_ + 27 x5_4_
   + 6 x5_5_ + 6 x5_6_ + 27 x5_7_ + 27 x5_8_ + 27 x5_9_ + 36 x6_0_
   + 36 x6_1_ + 36 x6_2_ + 36 x6_3_ + 36 x6_4_ + 8 x6_5_ + 8 x6_6_
   + 36 x6_7_ + 36 x6_8_ + 36 x6_9_ + 288 x7_5_ + 288 x7_6_ + 72 x8_5_
   + 72 x8_6_ + 18 x9_0_ + 18 x9_1_ + 18 x9_2_ + 18 x9_3_ + 18 x9_4_
   + 4 x9_5_ + 4 x9_6_ + 18 x9_7_ + 18 x9_8_ + 18 x9_9_ + 51 x10_5_
   + 51 x10_6_ + 36 x11_0_ + 36 x11_1_ + 36 x11_2_ + 36 x11_3_ + 36 x11_4_
   + 8 x11_5_ + 8 x11_6_ + 36 x11_7_ + 36 x11_8_ + 36 x11_9_ + 144 x12_5_
   + 144 x12_6_ + 288 x13_5_ + 288 x13_6_ + 36 x14_0_ + 36 x14_1_
   + 36 x14_2_ + 36 x14_3_ + 36 x14_4_ + 8 x14_5_ + 8 x14_6_ + 36 x14_7_
   + 36 x14_8_ + 36 x14_9_ + 288 x15_5_ + 288 x15_6_ + 17 x16_5_
   + 17 x16_6_ + 9 x17_0_ + 9 x17_1_ + 9 x17_2_ + 9 x17_3_ + 9 x17_4_
   + 2 x17_5_ + 2 x17_6_ + 9 x17_7_ + 9 x17_8_ + 9 x17_9_ + 288 x18_5_
   + 288 x18_6_ + 72 x19_5_ + 72 x19_6_
Subject To
 R0: x0_0_ + x0_1_ + x0_2_ + x0_3_ + x0_4_ + x0_5_ + x0_6_ + x0_7_ + x0_8_
   + x0_9_ + x0_n_ = 1
 R1: x1_5_ + x1_6_ + x1_n_ = 1
 R2: x2_5_ + x2_6_ + x2_n_ = 1
 R3: x3_5_ + x3_6_ + x3_n_ = 1
 R4: x4_0_ + x4_1_ + x4_2_ + x4_3_ + x4_4_ + x4_5_ + x4_6_ + x4_7_ + x4_8_
   + x4_9_ + x4_n_ = 1
 R5: x5_0_ + x5_1_ + x5_2_ + x5_3_ + x5_4_ + x5_5_ + x5_6_ + x5_7_ + x5_8_
   + x5_9_ + x5_n_ = 1
 R6: x6_0_ + x6_1_ + x6_2_ + x6_3_ + x6_4_ + x6_5_ + x6_6_ + x6_7_ + x6_8_
   + x6_9_ + x6_n_ = 1
 R7: x7_5_ + x7_6_ + x7_n_ = 1
 R8: x8_5_ + x8_6_ + x8_n_ = 1
 R9: x9_0_ + x9_1_ + x9_2_ + x9_3_ + x9_4_ + x9_5_ + x9_6_ + x9_7_ + x9_8_
   + x9_9_ + x9_n_ = 1
 R10: x10_5_ + x10_6_ + x10_n_ = 1
 R11: x11_0_ + x11_1_ + x11_2_ + x11_3_ + x11_4_ + x11_5_ + x11_6_ + x11_7_
   + x11_8_ + x11_9_ + x11_n_ = 1
 R12: x12_5_ + x12_6_ + x12_n_ = 1
 R13: x13_5_ + x13_6_ + x13_n_ = 1
 R14: x14_0_ + x14_1_ + x14_2_ + x14_3_ + x14_4_ + x14_5_ + x14_6_ + x14_7_
   + x14_8_ + x14_9_ + x14_n_ = 1
 R15: x15_5_ + x15_6_ + x15_n_ = 1
 R16: x16_5_ + x16_6_ + x16_n_ = 1
 R17: x17_0_ + x17_1_ + x17_2_ + x17_3_ + x17_4_ + x17_5_ + x17_6_ + x17_7_
   + x17_8_ + x17_9_ + x17_n_ = 1
 R18: x18_5_ + x18_6_ + x18_n_ = 1
 R19: x19_5_ + x19_6_ + x19_n_ = 1
 R20: x0_0_ + x6_0_ <= 1
 R21: x0_1_ + x6_1_ <= 1
 R22: x0_2_ + x6_2_ <= 1
 R23: x0_3_ + x6_3_ <= 1
 R24: x0_4_ + x6_4_ <= 1
 R25: x0_5_ + x6_5_ <= 1
 R26: x0_6_ + x6_6_ <= 1
 R27: x0_7_ + x6_7_ <= 1
 R28: x0_8_ + x6_8_ <= 1
 R29: x0_9_ + x6_9_ <= 1
 R30: x0_0_ + x11_0_ <= 1
 R31: x0_1_ + x11_1_ <= 1
 R32: x0_2_ + x11_2_ <= 1
 R33: x0_3_ + x11_3_ <= 1
 R34: x0_4_ + x11_4_ <= 1
 R35: x0_5_ + x11_5_ <= 1
 R36: x0_6_ + x11_6_ <= 1
 R37: x0_7_ + x11_7_ <= 1
 R38: x0_8_ + x11_8_ <= 1
 R39: x0_9_ + x11_9_ <= 1
 R40: x0_0_ + x14_0_ <= 1
 R41: x0_1_ + x14_1_ <= 1
 R42: x0_2_ + x14_2_ <= 1
 R43: x0_3_ + x14_3_ <= 1
 R44: x0_4_ + x14_4_ <= 1
 R45: x0_5_ + x14_5_ <= 1
 R46: x0_6_ + x14_6_ <= 1
 R47: x0_7_ + x14_7_ <= 1
 R48: x0_8_ + x14_8_ <= 1
 R49: x0_9_ + x14_9_ <= 1
 R50: x1_5_ + x4_5_ <= 1
 R51: x1_6_ + x4_6_ <= 1
 R52: x1_5_ + x5_5_ <= 1
 R53: x1_6_ + x5_6_ <= 1
 R54: x1_5_ + x7_5_ <= 1
 R55: x1_6_ + x7_6_ <= 1
 R56: x1_5_ + x8_5_ <= 1
 R57: x1_6_ + x8_6_ <= 1
 R58: x1_5_ + x9_5_ <= 1
 R59: x1_6_ + x9_6_ <= 1
 R60: x1_5_ + x11_5_ <= 1
 R61: x1_6_ + x11_6_ <= 1
 R62: x1_5_ + x15_5_ <= 1
 R63: x1_6_ + x15_6_ <= 1
 R64: x1_5_ + x17_5_ <= 1
 R65: x1_6_ + x17_6_ <= 1
 R66: x1_5_ + x18_5_ <= 1
 R67: x1_6_ + x18_6_ <= 1
 R68: x1_5_ + x2_5_ <= 1
 R69: x1_6_ + x2_6_ <= 1
 R70: x2_5_ + x3_5_ <= 1
 R71: x2_6_ + x3_6_ <= 1
 R72: x2_5_ + x4_5_ <= 1
 R73: x2_6_ + x4_6_ <= 1
 R74: x2_5_ + x5_5_ <= 1
 R75: x2_6_ + x5_6_ <= 1
 R76: x2_5_ + x7_5_ <= 1
 R77: x2_6_ + x7_6_ <= 1
 R78: x2_5_ + x8_5_ <= 1
 R79: x2_6_ + x8_6_ <= 1
 R80: x2_5_ + x9_5_ <= 1
 R81: x2_6_ + x9_6_ <= 1
 R82: x2_5_ + x10_5_ <= 1
 R83: x2_6_ + x10_6_ <= 1
 R84: x2_5_ + x11_5_ <= 1
 R85: x2_6_ + x11_6_ <= 1
 R86: x2_5_ + x15_5_ <= 1
 R87: x2_6_ + x15_6_ <= 1
 R88: x2_5_ + x17_5_ <= 1
 R89: x2_6_ + x17_6_ <= 1
 R90: x2_5_ + x18_5_ <= 1
 R91: x2_6_ + x18_6_ <= 1
 R92: x3_5_ + x6_5_ <= 1
 R93: x3_6_ + x6_6_ <= 1
 R94: x3_5_ + x11_5_ <= 1
 R95: x3_6_ + x11_6_ <= 1
 R96: x3_5_ + x13_5_ <= 1
 R97: x3_6_ + x13_6_ <= 1
 R98: x3_5_ + x18_5_ <= 1
 R99: x3_6_ + x18_6_ <= 1
 R100: x4_0_ + x5_0_ <= 1
 R101: x4_1_ + x5_1_ <= 1
 R102: x4_2_ + x5_2_ <= 1
 R103: x4_3_ + x5_3_ <= 1
 R104: x4_4_ + x5_4_ <= 1
 R105: x4_5_ + x5_5_ <= 1
 R106: x4_6_ + x5_6_ <= 1
 R107: x4_7_ + x5_7_ <= 1
 R108: x4_8_ + x5_8_ <= 1
 R109: x4_9_ + x5_9_ <= 1
 R110: x4_0_ + x9_0_ <= 1
 R111: x4_1_ + x9_1_ <= 1
 R112: x4_2_ + x9_2_ <= 1
 R113: x4_3_ + x9_3_ <= 1
 R114: x4_4_ + x9_4_ <= 1
 R115: x4_5_ + x9_5_ <= 1
 R116: x4_6_ + x9_6_ <= 1
 R117: x4_7_ + x9_7_ <= 1
 R118: x4_8_ + x9_8_ <= 1
 R119: x4_9_ + x9_9_ <= 1
 R120: x4_0_ + x17_0_ <= 1
 R121: x4_1_ + x17_1_ <= 1
 R122: x4_2_ + x17_2_ <= 1
 R123: x4_3_ + x17_3_ <= 1
 R124: x4_4_ + x17_4_ <= 1
 R125: x4_5_ + x17_5_ <= 1
 R126: x4_6_ + x17_6_ <= 1
 R127: x4_7_ + x17_7_ <= 1
 R128: x4_8_ + x17_8_ <= 1
 R129: x4_9_ + x17_9_ <= 1
 R130: x4_0_ + x5_0_ <= 1
 R131: x4_1_ + x5_1_ <= 1
 R132: x4_2_ + x5_2_ <= 1
 R133: x4_3_ + x5_3_ <= 1
 R134: x4_4_ + x5_4_ <= 1
 R135: x4_5_ + x5_5_ <= 1
 R136: x4_6_ + x5_6_ <= 1
 R137: x4_7_ + x5_7_ <= 1
 R138: x4_8_ + x5_8_ <= 1
 R139: x4_9_ + x5_9_ <= 1
 R140: x5_0_ + x9_0_ <= 1
 R141: x5_1_ + x9_1_ <= 1
 R142: x5_2_ + x9_2_ <= 1
 R143: x5_3_ + x9_3_ <= 1
 R144: x5_4_ + x9_4_ <= 1
 R145: x5_5_ + x9_5_ <= 1
 R146: x5_6_ + x9_6_ <= 1
 R147: x5_7_ + x9_7_ <= 1
 R148: x5_8_ + x9_8_ <= 1
 R149: x5_9_ + x9_9_ <= 1
 R150: x5_0_ + x11_0_ <= 1
 R151: x5_1_ + x11_1_ <= 1
 R152: x5_2_ + x11_2_ <= 1
 R153: x5_3_ + x11_3_ <= 1
 R154: x5_4_ + x11_4_ <= 1
 R155: x5_5_ + x11_5_ <= 1
 R156: x5_6_ + x11_6_ <= 1
 R157: x5_7_ + x11_7_ <= 1
 R158: x5_8_ + x11_8_ <= 1
 R159: x5_9_ + x11_9_ <= 1
 R160: x5_0_ + x17_0_ <= 1
 R161: x5_1_ + x17_1_ <= 1
 R162: x5_2_ + x17_2_ <= 1
 R163: x5_3_ + x17_3_ <= 1
 R164: x5_4_ + x17_4_ <= 1
 R165: x5_5_ + x17_5_ <= 1
 R166: x5_6_ + x17_6_ <= 1
 R167: x5_7_ + x17_7_ <= 1
 R168: x5_8_ + x17_8_ <= 1
 R169: x5_9_ + x17_9_ <= 1
 R170: x0_0_ + x6_0_ <= 1
 R171: x0_1_ + x6_1_ <= 1
 R172: x0_2_ + x6_2_ <= 1
 R173: x0_3_ + x6_3_ <= 1
 R174: x0_4_ + x6_4_ <= 1
 R175: x0_5_ + x6_5_ <= 1
 R176: x0_6_ + x6_6_ <= 1
 R177: x0_7_ + x6_7_ <= 1
 R178: x0_8_ + x6_8_ <= 1
 R179: x0_9_ + x6_9_ <= 1
 R180: x6_0_ + x11_0_ <= 1
 R181: x6_1_ + x11_1_ <= 1
 R182: x6_2_ + x11_2_ <= 1
 R183: x6_3_ + x11_3_ <= 1
 R184: x6_4_ + x11_4_ <= 1
 R185: x6_5_ + x11_5_ <= 1
 R186: x6_6_ + x11_6_ <= 1
 R187: x6_7_ + x11_7_ <= 1
 R188: x6_8_ + x11_8_ <= 1
 R189: x6_9_ + x11_9_ <= 1
 R190: x6_0_ + x14_0_ <= 1
 R191: x6_1_ + x14_1_ <= 1
 R192: x6_2_ + x14_2_ <= 1
 R193: x6_3_ + x14_3_ <= 1
 R194: x6_4_ + x14_4_ <= 1
 R195: x6_5_ + x14_5_ <= 1
 R196: x6_6_ + x14_6_ <= 1
 R197: x6_7_ + x14_7_ <= 1
 R198: x6_8_ + x14_8_ <= 1
 R199: x6_9_ + x14_9_ <= 1
 R200: x1_5_ + x7_5_ <= 1
 R201: x1_6_ + x7_6_ <= 1
 R202: x4_5_ + x7_5_ <= 1
 R203: x4_6_ + x7_6_ <= 1
 R204: x5_5_ + x7_5_ <= 1
 R205: x5_6_ + x7_6_ <= 1
 R206: x7_5_ + x8_5_ <= 1
 R207: x7_6_ + x8_6_ <= 1
 R208: x7_5_ + x9_5_ <= 1
 R209: x7_6_ + x9_6_ <= 1
 R210: x7_5_ + x11_5_ <= 1
 R211: x7_6_ + x11_6_ <= 1
 R212: x7_5_ + x15_5_ <= 1
 R213: x7_6_ + x15_6_ <= 1
 R214: x7_5_ + x17_5_ <= 1
 R215: x7_6_ + x17_6_ <= 1
 R216: x7_5_ + x18_5_ <= 1
 R217: x7_6_ + x18_6_ <= 1
 R218: x1_5_ + x8_5_ <= 1
 R219: x1_6_ + x8_6_ <= 1
 R220: x4_5_ + x8_5_ <= 1
 R221: x4_6_ + x8_6_ <= 1
 R222: x5_5_ + x8_5_ <= 1
 R223: x5_6_ + x8_6_ <= 1
 R224: x7_5_ + x8_5_ <= 1
 R225: x7_6_ + x8_6_ <= 1
 R226: x8_5_ + x9_5_ <= 1
 R227: x8_6_ + x9_6_ <= 1
 R228: x8_5_ + x15_5_ <= 1
 R229: x8_6_ + x15_6_ <= 1
 R230: x8_5_ + x17_5_ <= 1
 R231: x8_6_ + x17_6_ <= 1
 R232: x4_0_ + x9_0_ <= 1
 R233: x4_1_ + x9_1_ <= 1
 R234: x4_2_ + x9_2_ <= 1
 R235: x4_3_ + x9_3_ <= 1
 R236: x4_4_ + x9_4_ <= 1
 R237: x4_5_ + x9_5_ <= 1
 R238: x4_6_ + x9_6_ <= 1
 R239: x4_7_ + x9_7_ <= 1
 R240: x4_8_ + x9_8_ <= 1
 R241: x4_9_ + x9_9_ <= 1
 R242: x5_0_ + x9_0_ <= 1
 R243: x5_1_ + x9_1_ <= 1
 R244: x5_2_ + x9_2_ <= 1
 R245: x5_3_ + x9_3_ <= 1
 R246: x5_4_ + x9_4_ <= 1
 R247: x5_5_ + x9_5_ <= 1
 R248: x5_6_ + x9_6_ <= 1
 R249: x5_7_ + x9_7_ <= 1
 R250: x5_8_ + x9_8_ <= 1
 R251: x5_9_ + x9_9_ <= 1
 R252: x9_0_ + x11_0_ <= 1
 R253: x9_1_ + x11_1_ <= 1
 R254: x9_2_ + x11_2_ <= 1
 R255: x9_3_ + x11_3_ <= 1
 R256: x9_4_ + x11_4_ <= 1
 R257: x9_5_ + x11_5_ <= 1
 R258: x9_6_ + x11_6_ <= 1
 R259: x9_7_ + x11_7_ <= 1
 R260: x9_8_ + x11_8_ <= 1
 R261: x9_9_ + x11_9_ <= 1
 R262: x9_0_ + x17_0_ <= 1
 R263: x9_1_ + x17_1_ <= 1
 R264: x9_2_ + x17_2_ <= 1
 R265: x9_3_ + x17_3_ <= 1
 R266: x9_4_ + x17_4_ <= 1
 R267: x9_5_ + x17_5_ <= 1
 R268: x9_6_ + x17_6_ <= 1
 R269: x9_7_ + x17_7_ <= 1
 R270: x9_8_ + x17_8_ <= 1
 R271: x9_9_ + x17_9_ <= 1
 R272: x1_5_ + x10_5_ <= 1
 R273: x1_6_ + x10_6_ <= 1
 R274: x2_5_ + x10_5_ <= 1
 R275: x2_6_ + x10_6_ <= 1
 R276: x3_5_ + x10_5_ <= 1
 R277: x3_6_ + x10_6_ <= 1
 R278: x5_5_ + x10_5_ <= 1
 R279: x5_6_ + x10_6_ <= 1
 R280: x6_5_ + x10_5_ <= 1
 R281: x6_6_ + x10_6_ <= 1
 R282: x7_5_ + x10_5_ <= 1
 R283: x7_6_ + x10_6_ <= 1
 R284: x9_5_ + x10_5_ <= 1
 R285: x9_6_ + x10_6_ <= 1
 R286: x10_5_ + x11_5_ <= 1
 R287: x10_6_ + x11_6_ <= 1
 R288: x10_5_ + x13_5_ <= 1
 R289: x10_6_ + x13_6_ <= 1
 R290: x10_5_ + x15_5_ <= 1
 R291: x10_6_ + x15_6_ <= 1
 R292: x10_5_ + x18_5_ <= 1
 R293: x10_6_ + x18_6_ <= 1
 R294: x0_0_ + x11_0_ <= 1
 R295: x0_1_ + x11_1_ <= 1
 R296: x0_2_ + x11_2_ <= 1
 R297: x0_3_ + x11_3_ <= 1
 R298: x0_4_ + x11_4_ <= 1
 R299: x0_5_ + x11_5_ <= 1
 R300: x0_6_ + x11_6_ <= 1
 R301: x0_7_ + x11_7_ <= 1
 R302: x0_8_ + x11_8_ <= 1
 R303: x0_9_ + x11_9_ <= 1
 R304: x5_0_ + x11_0_ <= 1
 R305: x5_1_ + x11_1_ <= 1
 R306: x5_2_ + x11_2_ <= 1
 R307: x5_3_ + x11_3_ <= 1
 R308: x5_4_ + x11_4_ <= 1
 R309: x5_5_ + x11_5_ <= 1
 R310: x5_6_ + x11_6_ <= 1
 R311: x5_7_ + x11_7_ <= 1
 R312: x5_8_ + x11_8_ <= 1
 R313: x5_9_ + x11_9_ <= 1
 R314: x6_0_ + x11_0_ <= 1
 R315: x6_1_ + x11_1_ <= 1
 R316: x6_2_ + x11_2_ <= 1
 R317: x6_3_ + x11_3_ <= 1
 R318: x6_4_ + x11_4_ <= 1
 R319: x6_5_ + x11_5_ <= 1
 R320: x6_6_ + x11_6_ <= 1
 R321: x6_7_ + x11_7_ <= 1
 R322: x6_8_ + x11_8_ <= 1
 R323: x6_9_ + x11_9_ <= 1
 R324: x9_0_ + x11_0_ <= 1
 R325: x9_1_ + x11_1_ <= 1
 R326: x9_2_ + x11_2_ <= 1
 R327: x9_3_ + x11_3_ <= 1
 R328: x9_4_ + x11_4_ <= 1
 R329: x9_5_ + x11_5_ <= 1
 R330: x9_6_ + x11_6_ <= 1
 R331: x9_7_ + x11_7_ <= 1
 R332: x9_8_ + x11_8_ <= 1
 R333: x9_9_ + x11_9_ <= 1
 R334: x12_5_ + x14_5_ <= 1
 R335: x12_6_ + x14_6_ <= 1
 R336: x0_5_ + x13_5_ <= 1
 R337: x0_6_ + x13_6_ <= 1
 R338: x3_5_ + x13_5_ <= 1
 R339: x3_6_ + x13_6_ <= 1
 R340: x6_5_ + x13_5_ <= 1
 R341: x6_6_ + x13_6_ <= 1
 R342: x11_5_ + x13_5_ <= 1
 R343: x11_6_ + x13_6_ <= 1
 R344: x13_5_ + x14_5_ <= 1
 R345: x13_6_ + x14_6_ <= 1
 R346: x13_5_ + x18_5_ <= 1
 R347: x13_6_ + x18_6_ <= 1
 R348: x13_5_ + x19_5_ <= 1
 R349: x13_6_ + x19_6_ <= 1
 R350: x0_0_ + x14_0_ <= 1
 R351: x0_1_ + x14_1_ <= 1
 R352: x0_2_ + x14_2_ <= 1
 R353: x0_3_ + x14_3_ <= 1
 R354: x0_4_ + x14_4_ <= 1
 R355: x0_5_ + x14_5_ <= 1
 R356: x0_6_ + x14_6_ <= 1
 R357: x0_7_ + x14_7_ <= 1
 R358: x0_8_ + x14_8_ <= 1
 R359: x0_9_ + x14_9_ <= 1
 R360: x6_0_ + x14_0_ <= 1
 R361: x6_1_ + x14_1_ <= 1
 R362: x6_2_ + x14_2_ <= 1
 R363: x6_3_ + x14_3_ <= 1
 R364: x6_4_ + x14_4_ <= 1
 R365: x6_5_ + x14_5_ <= 1
 R366: x6_6_ + x14_6_ <= 1
 R367: x6_7_ + x14_7_ <= 1
 R368: x6_8_ + x14_8_ <= 1
 R369: x6_9_ + x14_9_ <= 1
 R370: x1_5_ + x15_5_ <= 1
 R371: x1_6_ + x15_6_ <= 1
 R372: x4_5_ + x15_5_ <= 1
 R373: x4_6_ + x15_6_ <= 1
 R374: x5_5_ + x15_5_ <= 1
 R375: x5_6_ + x15_6_ <= 1
 R376: x7_5_ + x15_5_ <= 1
 R377: x7_6_ + x15_6_ <= 1
 R378: x8_5_ + x15_5_ <= 1
 R379: x8_6_ + x15_6_ <= 1
 R380: x9_5_ + x15_5_ <= 1
 R381: x9_6_ + x15_6_ <= 1
 R382: x11_5_ + x15_5_ <= 1
 R383: x11_6_ + x15_6_ <= 1
 R384: x15_5_ + x17_5_ <= 1
 R385: x15_6_ + x17_6_ <= 1
 R386: x15_5_ + x18_5_ <= 1
 R387: x15_6_ + x18_6_ <= 1
 R388: x0_5_ + x16_5_ <= 1
 R389: x0_6_ + x16_6_ <= 1
 R390: x6_5_ + x16_5_ <= 1
 R391: x6_6_ + x16_6_ <= 1
 R392: x11_5_ + x16_5_ <= 1
 R393: x11_6_ + x16_6_ <= 1
 R394: x13_5_ + x16_5_ <= 1
 R395: x13_6_ + x16_6_ <= 1
 R396: x16_5_ + x18_5_ <= 1
 R397: x16_6_ + x18_6_ <= 1
 R398: x4_0_ + x17_0_ <= 1
 R399: x4_1_ + x17_1_ <= 1
 R400: x4_2_ + x17_2_ <= 1
 R401: x4_3_ + x17_3_ <= 1
 R402: x4_4_ + x17_4_ <= 1
 R403: x4_5_ + x17_5_ <= 1
 R404: x4_6_ + x17_6_ <= 1
 R405: x4_7_ + x17_7_ <= 1
 R406: x4_8_ + x17_8_ <= 1
 R407: x4_9_ + x17_9_ <= 1
 R408: x5_0_ + x17_0_ <= 1
 R409: x5_1_ + x17_1_ <= 1
 R410: x5_2_ + x17_2_ <= 1
 R411: x5_3_ + x17_3_ <= 1
 R412: x5_4_ + x17_4_ <= 1
 R413: x5_5_ + x17_5_ <= 1
 R414: x5_6_ + x17_6_ <= 1
 R415: x5_7_ + x17_7_ <= 1
 R416: x5_8_ + x17_8_ <= 1
 R417: x5_9_ + x17_9_ <= 1
 R418: x9_0_ + x17_0_ <= 1
 R419: x9_1_ + x17_1_ <= 1
 R420: x9_2_ + x17_2_ <= 1
 R421: x9_3_ + x17_3_ <= 1
 R422: x9_4_ + x17_4_ <= 1
 R423: x9_5_ + x17_5_ <= 1
 R424: x9_6_ + x17_6_ <= 1
 R425: x9_7_ + x17_7_ <= 1
 R426: x9_8_ + x17_8_ <= 1
 R427: x9_9_ + x17_9_ <= 1
 R428: x0_5_ + x18_5_ <= 1
 R429: x0_6_ + x18_6_ <= 1
 R430: x1_5_ + x18_5_ <= 1
 R431: x1_6_ + x18_6_ <= 1
 R432: x3_5_ + x18_5_ <= 1
 R433: x3_6_ + x18_6_ <= 1
 R434: x5_5_ + x18_5_ <= 1
 R435: x5_6_ + x18_6_ <= 1
 R436: x6_5_ + x18_5_ <= 1
 R437: x6_6_ + x18_6_ <= 1
 R438: x7_5_ + x18_5_ <= 1
 R439: x7_6_ + x18_6_ <= 1
 R440: x9_5_ + x18_5_ <= 1
 R441: x9_6_ + x18_6_ <= 1
 R442: x11_5_ + x18_5_ <= 1
 R443: x11_6_ + x18_6_ <= 1
 R444: x13_5_ + x18_5_ <= 1
 R445: x13_6_ + x18_6_ <= 1
 R446: x15_5_ + x18_5_ <= 1
 R447: x15_6_ + x18_6_ <= 1
 R448: x0_5_ + x19_5_ <= 1
 R449: x0_6_ + x19_6_ <= 1
 R450: x6_5_ + x19_5_ <= 1
 R451: x6_6_ + x19_6_ <= 1
 R452: x13_5_ + x19_5_ <= 1
 R453: x13_6_ + x19_6_ <= 1
 R454: x14_5_ + x19_5_ <= 1
 R455: x14_6_ + x19_6_ <= 1
 R456: <= 1
 R457: 18 x0_0_ + 18 x0_1_ + 18 x0_2_ + 18 x0_3_ + 18 x0_4_ + 4 x0_5_
   + 4 x0_6_ + 18 x0_7_ + 18 x0_8_ + 18 x0_9_ + 216 x1_5_ + 216 x1_6_
   + 85 x2_5_ + 85 x2_6_ + 144 x3_5_ + 144 x3_6_ + 27 x4_0_ + 27 x4_1_
   + 27 x4_2_ + 27 x4_3_ + 27 x4_4_ + 6 x4_5_ + 6 x4_6_ + 27 x4_7_
   + 27 x4_8_ + 27 x4_9_ + 27 x5_0_ + 27 x5_1_ + 27 x5_2_ + 27 x5_3_
   + 27 x5_4_ + 6 x5_5_ + 6 x5_6_ + 27 x5_7_ + 27 x5_8_ + 27 x5_9_
   + 36 x6_0_ + 36 x6_1_ + 36 x6_2_ + 36 x6_3_ + 36 x6_4_ + 8 x6_5_
   + 8 x6_6_ + 36 x6_7_ + 36 x6_8_ + 36 x6_9_ + 288 x7_5_ + 288 x7_6_
   + 72 x8_5_ + 72 x8_6_ + 18 x9_0_ + 18 x9_1_ + 18 x9_2_ + 18 x9_3_
   + 18 x9_4_ + 4 x9_5_ + 4 x9_6_ + 18 x9_7_ + 18 x9_8_ + 18 x9_9_
   + 51 x10_5_ + 51 x10_6_ + 36 x11_0_ + 36 x11_1_ + 36 x11_2_ + 36 x11_3_
   + 36 x11_4_ + 8 x11_5_ + 8 x11_6_ + 36 x11_7_ + 36 x11_8_ + 36 x11_9_
   + 144 x12_5_ + 144 x12_6_ + 288 x13_5_ + 288 x13_6_ + 36 x14_0_
   + 36 x14_1_ + 36 x14_2_ + 36 x14_3_ + 36 x14_4_ + 8 x14_5_ + 8 x14_6_
   + 36 x14_7_ + 36 x14_8_ + 36 x14_9_ + 288 x15_5_ + 288 x15_6_
   + 17 x16_5_ + 17 x16_6_ + 9 x17_0_ + 9 x17_1_ + 9 x17_2_ + 9 x17_3_
   + 9 x17_4_ + 2 x17_5_ + 2 x17_6_ + 9 x17_7_ + 9 x17_8_ + 9 x17_9_
   + 288 x18_5_ + 288 x18_6_ + 72 x19_5_ + 72 x19_6_ >= 1448
 R458: x0_4_ + x1_n_ + x2_n_ + x3_5_ + x4_1_ + x5_4_ + x6_3_ + x7_6_
   + x8_n_ + x9_3_ + x10_n_ + x11_0_ + x12_5_ + x13_6_ + x14_0_ + x15_5_
   + x16_5_ + x17_0_ + x18_n_ + x19_5_ <= 19
Bounds
Binaries
 x0_0_ x0_1_ x0_2_ x0_3_ x0_4_ x0_5_ x0_6_ x0_7_ x0_8_ x0_9_ x0_n_ x1_5_
 x1_6_ x1_n_ x2_5_ x2_6_ x2_n_ x3_5_ x3_6_ x3_n_ x4_0_ x4_1_ x4_2_ x4_3_
 x4_4_ x4_5_ x4_6_ x4_7_ x4_8_ x4_9_ x4_n_ x5_0_ x5_1_ x5_2_ x5_3_ x5_4_
 x5_5_ x5_6_ x5_7_ x5_8_ x5_9_ x5_n_ x6_0_ x6_1_ x6_2_ x6_3_ x6_4_ x6_5_
 x6_6_ x6_7_ x6_8_ x6_9_ x6_n_ x7_5_ x7_6_ x7_n_ x8_5_ x8_6_ x8_n_ x9_0_
 x9_1_ x9_2_ x9_3_ x9_4_ x9_5_ x9_6_ x9_7_ x9_8_ x9_9_ x9_n_ x10_5_ x10_6_
 x10_n_ x11_0_ x11_1_ x11_2_ x11_3_ x11_4_ x11_5_ x11_6_ x11_7_ x11_8_
 x11_9_ x11_n_ x12_5_ x12_6_ x12_n_ x13_5_ x13_6_ x13_n_ x14_0_ x14_1_
 x14_2_ x14_3_ x14_4_ x14_5_ x14_6_ x14_7_ x14_8_ x14_9_ x14_n_ x15_5_
 x15_6_ x15_n_ x16_5_ x16_6_ x16_n_ x17_0_ x17_1_ x17_2_ x17_3_ x17_4_
 x17_5_ x17_6_ x17_7_ x17_8_ x17_9_ x17_n_ x18_5_ x18_6_ x18_n_ x19_5_
 x19_6_ x19_n_
End
